#=======================================================
# FHI-aims file: ./geometry.in
# Created using the Atomic Simulation Environment (ASE)
# Tue Apr  4 15:01:14 2023
#=======================================================
lattice_vector 4.5956999999999999 0.0000000000000000 0.0000000000000000 
lattice_vector 0.0000000000000000 4.5956999999999999 0.0000000000000000 
lattice_vector 0.0000000000000000 0.0000000000000000 2.9588999999999999 
atom_frac 0.4999999998497530 0.4999999996682105 0.4999999995991619 Ti
atom_frac 0.0000000001187973 0.0000000000383633 0.0000000004958236 Ti
atom_frac 0.1940465828751225 0.8059540880813520 0.4999999999427255 O
atom_frac 0.8059534171625321 0.1940459120818119 0.4999999999787667 O
atom_frac 0.3059534171376675 0.3059540880702390 0.0000000000011476 O
atom_frac 0.6940465828561277 0.6940459120600232 -0.0000000000176252 O
