#=======================================================
# FHI-aims file: ./geometry.in
# Created using the Atomic Simulation Environment (ASE)
# Thu Nov 10 21:45:23 2022
#=======================================================
lattice_vector 3.7850000000000001 0.0000000000000000 0.0000000000000000 
lattice_vector 0.0000000000000000 3.7850000000000001 0.0000000000000000 
lattice_vector 0.0000000000000000 0.0000000000000000 9.5132999999999992 
atom_frac 0.5000000023302901 0.7500000016604608 0.8749995807290242 Ti
atom_frac -0.0000000022548463 0.7499999994999336 0.6250004195409619 Ti
atom_frac 0.4999999958327849 0.2499999994046751 0.1250004194295698 Ti
atom_frac 0.0000000036755248 0.2499999998022054 0.3749995801732773 Ti
atom_frac 0.5000000005098725 0.7500000001987241 0.0816797125851873 O
atom_frac 0.0000000000754000 0.7500000004072761 0.8316789974359341 O
atom_frac 0.4999999987372932 0.2500000003658404 0.9183202873972862 O
atom_frac -0.0000000003002182 0.2500000005333001 0.1683210025952525 O
atom_frac 0.0000000010224541 0.2499999997202168 0.5816797126412107 O
atom_frac 0.5000000004323299 0.2499999991074887 0.3316789974021142 O
atom_frac 0.0000000000075240 0.7499999997916506 0.4183202874422152 O
atom_frac 0.4999999999315905 0.7499999995082276 0.6683210026279671 O
